13367
1 0 1 0 0 1 1 0 0 0 0 1 0 0 1 1 0 1 0 1 1 0 0 0 1 1 0 0 0 0 
20 11 6 2 6 5 19 24 2 17 5 14 2 20 17 2 17 17 25 11 19 0 5 17 5 20 19 24 5 24 25 25 6 25 20 20 24 15 0 14 0 14 15 19 24 14 0 20 11 14 25 19 14 5 6 20 17 11 11 14 0 5 20 11 11 11 24 0 25 5 6 6 11 17 24 14 24 20 19 24 20 0 20 17 19 17 17 0 20 5 2 24 17 11 17 5 2 19 25 6 2 17 17 25 2 25 0 11 14 14 14 2 2 11 11 25 24 15 24 24 5 2 25 20 6 0 5 15 0 25 0 11 24 25 2 14 0 5 20 17 0 14 20 14 14 25 25 5 2 5 
